6762
10010100010011010101
19 0 0 0 0 0 0 0 5 3 3 3 3 3 3 5 5 5 5 5 5 5 5 5 9 5 5 9 5 5 3 9 9 13 9 13 9 13 12 9 9 9 12 13 12 12 12 13 13 17 13 13 13 12 13 15 15 12 15 13 0 15 13 15 15 17 17 17 17 17 17 0 17 19 19 19 19 17 0 19 